-1.21 -0.36
-1.21 -1.04
-1.89 -1.04
-1.89 -0.36
-1.89 0.31
-1.89 0.99
-1.89 1.66
-2.56 1.66
-2.56 0.99
-2.56 0.31
-2.56 -0.36
-2.56 -1.04
-2.56 -1.71
-1.89 -1.71
-1.21 -1.71
-0.54 -1.71
0.14 -1.71
0.81 -1.71
0.81 -1.04
0.81 -0.36
0.81 0.31
0.81 0.99
0.81 1.66
0.81 2.34
0.81 3.01
0.81 3.69
0.81 4.36
0.81 5.04
0.81 5.71
0.81 6.39
0.81 7.06
0.14 7.06
0.14 6.39
0.14 5.71
0.14 5.04
0.14 4.36
0.14 3.69
0.14 3.01
0.14 2.34
0.14 1.66
0.14 0.99
0.14 0.31
0.14 -0.36
0.14 -1.04
-0.54 -1.04
-0.54 -0.36
-0.54 0.31
-0.54 0.99
-0.54 1.66
-0.54 2.34
-0.54 3.01
-0.54 3.69
-0.54 4.36
-0.54 5.04
-0.54 5.71
-0.54 6.39
-0.54 7.06
-1.21 7.06
-1.21 6.39
-1.21 5.71
-1.21 5.04
-1.21 4.36
-1.21 3.69
-1.21 3.01
-1.21 2.34
-1.21 1.66
-1.21 0.99
-1.21 0.31
